benchmark/results/graph__10-1000-0.10-04_4/graph__10-1000-0.10-04_4_QuintonOs_Benders_primal_sub.lp
\ This file has been generated by DOcplex
\ ENCODING=ISO-8859-1
\Problem name: Quinton Bounded Benders_primal_sub

Maximize
 obj: tau
Subject To
 c1: tau <= 0.000925069380
 c2: y_a0_proc_0 + y_a0_proc_2 - tau = 0
 c3: y_a0_proc_0 <= 1
 c4: y_a0_proc_2 <= 0
 c5: tau <= 0.002114164905
 c6: y_a1_proc_0 + y_a1_proc_2 + y_a1_proc_3 - tau = 0
 c7: y_a1_proc_0 <= 1
 c8: y_a1_proc_2 <= 0
 c9: y_a1_proc_3 <= 0
 c10: tau <= 0.001594896332
 c11: y_a2_proc_0 + y_a2_proc_1 + y_a2_proc_2 + y_a2_proc_3 - tau = 0
 c12: y_a2_proc_0 <= 1
 c13: y_a2_proc_1 <= 0
 c14: y_a2_proc_2 <= 0
 c15: y_a2_proc_3 <= 0
 c16: tau <= 0.001006036217
 c17: y_a3_proc_1 + y_a3_proc_2 + y_a3_proc_3 - tau = 0
 c18: y_a3_proc_1 <= 0
 c19: y_a3_proc_2 <= 1
 c20: y_a3_proc_3 <= 0
 c21: tau <= 0.013333333333
 c22: y_a4_proc_0 + y_a4_proc_1 + y_a4_proc_2 + y_a4_proc_3 - tau = 0
 c23: y_a4_proc_0 <= 0
 c24: y_a4_proc_1 <= 0
 c25: y_a4_proc_2 <= 1
 c26: y_a4_proc_3 <= 0
 c27: tau <= 0.001089324619
 c28: y_a5_proc_0 + y_a5_proc_1 + y_a5_proc_2 + y_a5_proc_3 - tau = 0
 c29: y_a5_proc_0 <= 1
 c30: y_a5_proc_1 <= 0
 c31: y_a5_proc_2 <= 0
 c32: y_a5_proc_3 <= 0
 c33: tau <= 0.001904761905
 c34: y_a6_proc_0 + y_a6_proc_1 + y_a6_proc_2 - tau = 0
 c35: y_a6_proc_0 <= 0
 c36: y_a6_proc_1 <= 0
 c37: y_a6_proc_2 <= 1
 c38: tau <= 0.000918273646
 c39: y_a7_proc_0 + y_a7_proc_1 + y_a7_proc_2 - tau = 0
 c40: y_a7_proc_0 <= 0
 c41: y_a7_proc_1 <= 1
 c42: y_a7_proc_2 <= 0
 c43: tau <= 0.000807754443
 c44: y_a8_proc_0 + y_a8_proc_1 + y_a8_proc_2 + y_a8_proc_3 - tau = 0
 c45: y_a8_proc_0 <= 0
 c46: y_a8_proc_1 <= 0
 c47: y_a8_proc_2 <= 0
 c48: y_a8_proc_3 <= 1
 c49: tau <= 0.001642036125
 c50: y_a9_proc_0 + y_a9_proc_1 + y_a9_proc_2 + y_a9_proc_3 - tau = 0
 c51: y_a9_proc_0 <= 0
 c52: y_a9_proc_1 <= 1
 c53: y_a9_proc_2 <= 0
 c54: y_a9_proc_3 <= 0
 c55: u_a0 - u_a1 - 473 y_a1_proc_0 - 860 y_a1_proc_2 - 707 y_a1_proc_3 >= 0
 c56: u_a0 - u_a2 - 627 y_a2_proc_0 - 735 y_a2_proc_1 - 1047 y_a2_proc_2
      - 1174 y_a2_proc_3 >= 0
 c57: u_a3 - u_a1 - 473 y_a1_proc_0 - 860 y_a1_proc_2 - 707 y_a1_proc_3 >= 0
 c58: u_a4 - u_a3 - 1141 y_a3_proc_1 - 994 y_a3_proc_2 - 1027 y_a3_proc_3 >= 0
 c59: u_a0 - u_a5 - 918 y_a5_proc_0 - 644 y_a5_proc_1 - 1163 y_a5_proc_2
      - 651 y_a5_proc_3 >= 0
 c60: u_a2 - u_a6 - 976 y_a6_proc_0 - 960 y_a6_proc_1 - 525 y_a6_proc_2 >= 0
 c61: u_a7 - u_a0 - 1081 y_a0_proc_0 - 708 y_a0_proc_2 >= -1
 c62: u_a2 - u_a8 - 1060 y_a8_proc_0 - 982 y_a8_proc_1 - 913 y_a8_proc_2
      - 1238 y_a8_proc_3 >= -1
 c63: u_a6 - u_a9 - 706 y_a9_proc_0 - 609 y_a9_proc_1 - 1285 y_a9_proc_2
      - 798 y_a9_proc_3 >= 0
 c64: u_a5 - u_a9 - 706 y_a9_proc_0 - 609 y_a9_proc_1 - 1285 y_a9_proc_2
      - 798 y_a9_proc_3 >= 0
 c65: u_a8 - u_a2 - 627 y_a2_proc_0 - 735 y_a2_proc_1 - 1047 y_a2_proc_2
      - 1174 y_a2_proc_3 >= 0
 c66: u_a2 - u_a0 - 1081 y_a0_proc_0 - 708 y_a0_proc_2 >= -1
 c67: - 1060 y_a8_proc_0 - 982 y_a8_proc_1 - 913 y_a8_proc_2 - 1238 y_a8_proc_3
       >= -1
 c68: u_a7 - u_a8 - 1060 y_a8_proc_0 - 982 y_a8_proc_1 - 913 y_a8_proc_2
      - 1238 y_a8_proc_3 >= -1
 c69: u_a5 - u_a7 - 729 y_a7_proc_0 - 1089 y_a7_proc_1 - 1193 y_a7_proc_2 >= 0
 c70: u_a9 - u_a4 - 457 y_a4_proc_0 - 890 y_a4_proc_1 - 75 y_a4_proc_2
      - 809 y_a4_proc_3 >= -1
 c71: u_a1 - u_a2 - 627 y_a2_proc_0 - 735 y_a2_proc_1 - 1047 y_a2_proc_2
      - 1174 y_a2_proc_3 >= 0
 c72: u_a5 - u_a3 - 1141 y_a3_proc_1 - 994 y_a3_proc_2 - 1027 y_a3_proc_3 >= -1
 c73: u_a7 - u_a4 - 457 y_a4_proc_0 - 890 y_a4_proc_1 - 75 y_a4_proc_2
      - 809 y_a4_proc_3 >= -1
 c74: u_a1 - u_a0 - 708 y_a0_proc_2 >= -2571
 c75: u_a1 - u_a0 - 1081 y_a0_proc_0 >= -1
 c76: u_a0 - u_a1 - 860 y_a1_proc_2 >= -2570
 c77: u_a0 - u_a1 - 473 y_a1_proc_0 >= 0
 c78: u_a2 - u_a0 - 708 y_a0_proc_2 >= -2571
 c79: u_a2 - u_a0 - 1081 y_a0_proc_0 >= -1
 c80: u_a0 - u_a2 - 1047 y_a2_proc_2 >= -2570
 c81: u_a0 - u_a2 - 627 y_a2_proc_0 >= 0
 c82: u_a3 - u_a0 - 708 y_a0_proc_2 >= -1272
 c83: u_a0 - u_a3 - 994 y_a3_proc_2 >= -1299
 c84: u_a4 - u_a0 - 708 y_a0_proc_2 >= -1299
 c85: u_a4 - u_a0 - 1081 y_a0_proc_0 >= -1299
 c86: u_a0 - u_a4 - 75 y_a4_proc_2 >= -1272
 c87: u_a0 - u_a4 - 457 y_a4_proc_0 >= -1272
 c88: u_a5 - u_a0 - 708 y_a0_proc_2 >= -2571
 c89: u_a5 - u_a0 - 1081 y_a0_proc_0 >= -1
 c90: u_a0 - u_a5 - 1163 y_a5_proc_2 >= -2570
 c91: u_a0 - u_a5 - 918 y_a5_proc_0 >= 0
 c92: u_a6 - u_a0 - 708 y_a0_proc_2 >= -1299
 c93: u_a6 - u_a0 - 1081 y_a0_proc_0 >= -1299
 c94: u_a0 - u_a6 - 525 y_a6_proc_2 >= -1272
 c95: u_a0 - u_a6 - 976 y_a6_proc_0 >= -1272
 c96: u_a7 - u_a0 - 708 y_a0_proc_2 >= -2584
 c97: u_a7 - u_a0 - 1081 y_a0_proc_0 >= -1299
 c98: u_a0 - u_a7 - 1193 y_a7_proc_2 >= -2557
 c99: u_a0 - u_a7 - 729 y_a7_proc_0 >= -1272
 c100: u_a8 - u_a0 - 708 y_a0_proc_2 >= -2584
 c101: u_a8 - u_a0 - 1081 y_a0_proc_0 >= -1299
 c102: u_a0 - u_a8 - 913 y_a8_proc_2 >= -2557
 c103: u_a0 - u_a8 - 1060 y_a8_proc_0 >= -1272
 c104: u_a9 - u_a0 - 708 y_a0_proc_2 >= -2584
 c105: u_a9 - u_a0 - 1081 y_a0_proc_0 >= -1299
 c106: u_a0 - u_a9 - 1285 y_a9_proc_2 >= -2557
 c107: u_a0 - u_a9 - 706 y_a9_proc_0 >= -1272
 c108: u_a2 - u_a1 - 860 y_a1_proc_2 >= -2571
 c109: u_a2 - u_a1 - 707 y_a1_proc_3 >= -2571
 c110: u_a2 - u_a1 - 473 y_a1_proc_0 >= -1
 c111: u_a1 - u_a2 - 1047 y_a2_proc_2 >= -2570
 c112: u_a1 - u_a2 - 1174 y_a2_proc_3 >= -2570
 c113: u_a1 - u_a2 - 627 y_a2_proc_0 >= 0
 c114: u_a3 - u_a1 - 860 y_a1_proc_2 >= -1299
 c115: u_a3 - u_a1 - 707 y_a1_proc_3 >= -2584
 c116: u_a1 - u_a3 - 994 y_a3_proc_2 >= -1272
 c117: u_a1 - u_a3 - 1027 y_a3_proc_3 >= -2557
 c118: u_a4 - u_a1 - 860 y_a1_proc_2 >= -1299
 c119: u_a4 - u_a1 - 707 y_a1_proc_3 >= -2584
 c120: u_a4 - u_a1 - 473 y_a1_proc_0 >= -1299
 c121: u_a1 - u_a4 - 75 y_a4_proc_2 >= -1272
 c122: u_a1 - u_a4 - 809 y_a4_proc_3 >= -2557
 c123: u_a1 - u_a4 - 457 y_a4_proc_0 >= -1272
 c124: u_a5 - u_a1 - 860 y_a1_proc_2 >= -2570
 c125: u_a5 - u_a1 - 707 y_a1_proc_3 >= -2570
 c126: u_a5 - u_a1 - 473 y_a1_proc_0 >= 0
 c127: u_a1 - u_a5 - 1163 y_a5_proc_2 >= -2571
 c128: u_a1 - u_a5 - 651 y_a5_proc_3 >= -2571
 c129: u_a1 - u_a5 - 918 y_a5_proc_0 >= -1
 c130: u_a6 - u_a1 - 860 y_a1_proc_2 >= -1299
 c131: u_a6 - u_a1 - 473 y_a1_proc_0 >= -1299
 c132: u_a1 - u_a6 - 525 y_a6_proc_2 >= -1272
 c133: u_a1 - u_a6 - 976 y_a6_proc_0 >= -1272
 c134: u_a7 - u_a1 - 860 y_a1_proc_2 >= -2584
 c135: u_a7 - u_a1 - 473 y_a1_proc_0 >= -1299
 c136: u_a1 - u_a7 - 1193 y_a7_proc_2 >= -2557
 c137: u_a1 - u_a7 - 729 y_a7_proc_0 >= -1272
 c138: u_a8 - u_a1 - 860 y_a1_proc_2 >= -2584
 c139: u_a8 - u_a1 - 707 y_a1_proc_3 >= -1299
 c140: u_a8 - u_a1 - 473 y_a1_proc_0 >= -1299
 c141: u_a1 - u_a8 - 913 y_a8_proc_2 >= -2557
 c142: u_a1 - u_a8 - 1238 y_a8_proc_3 >= -1272
 c143: u_a1 - u_a8 - 1060 y_a8_proc_0 >= -1272
 c144: u_a9 - u_a1 - 860 y_a1_proc_2 >= -2584
 c145: u_a9 - u_a1 - 707 y_a1_proc_3 >= -2584
 c146: u_a9 - u_a1 - 473 y_a1_proc_0 >= -1299
 c147: u_a1 - u_a9 - 1285 y_a9_proc_2 >= -2557
 c148: u_a1 - u_a9 - 798 y_a9_proc_3 >= -2557
 c149: u_a1 - u_a9 - 706 y_a9_proc_0 >= -1272
 c150: u_a3 - u_a2 - 1047 y_a2_proc_2 >= -1299
 c151: u_a3 - u_a2 - 1174 y_a2_proc_3 >= -2584
 c152: u_a3 - u_a2 - 735 y_a2_proc_1 >= -2584
 c153: u_a2 - u_a3 - 994 y_a3_proc_2 >= -1272
 c154: u_a2 - u_a3 - 1027 y_a3_proc_3 >= -2557
 c155: u_a2 - u_a3 - 1141 y_a3_proc_1 >= -2557
 c156: u_a4 - u_a2 - 1047 y_a2_proc_2 >= -1299
 c157: u_a4 - u_a2 - 1174 y_a2_proc_3 >= -2584
 c158: u_a4 - u_a2 - 627 y_a2_proc_0 >= -1299
 c159: u_a4 - u_a2 - 735 y_a2_proc_1 >= -2584
 c160: u_a2 - u_a4 - 75 y_a4_proc_2 >= -1272
 c161: u_a2 - u_a4 - 809 y_a4_proc_3 >= -2557
 c162: u_a2 - u_a4 - 457 y_a4_proc_0 >= -1272
 c163: u_a2 - u_a4 - 890 y_a4_proc_1 >= -2557
 c164: u_a5 - u_a2 - 1047 y_a2_proc_2 >= -2570
 c165: u_a5 - u_a2 - 1174 y_a2_proc_3 >= -2570
 c166: u_a5 - u_a2 - 627 y_a2_proc_0 >= 0
 c167: u_a5 - u_a2 - 735 y_a2_proc_1 >= -2570
 c168: u_a2 - u_a5 - 1163 y_a5_proc_2 >= -2571
 c169: u_a2 - u_a5 - 651 y_a5_proc_3 >= -2571
 c170: u_a2 - u_a5 - 918 y_a5_proc_0 >= -1
 c171: u_a2 - u_a5 - 644 y_a5_proc_1 >= -2571
 c172: u_a6 - u_a2 - 1047 y_a2_proc_2 >= -1299
 c173: u_a6 - u_a2 - 627 y_a2_proc_0 >= -1299
 c174: u_a6 - u_a2 - 735 y_a2_proc_1 >= -2584
 c175: u_a2 - u_a6 - 525 y_a6_proc_2 >= -1272
 c176: u_a2 - u_a6 - 976 y_a6_proc_0 >= -1272
 c177: u_a2 - u_a6 - 960 y_a6_proc_1 >= -2557
 c178: u_a7 - u_a2 - 1047 y_a2_proc_2 >= -2557
 c179: u_a7 - u_a2 - 627 y_a2_proc_0 >= -1272
 c180: u_a7 - u_a2 - 735 y_a2_proc_1 >= -1272
 c181: u_a2 - u_a7 - 1193 y_a7_proc_2 >= -2584
 c182: u_a2 - u_a7 - 729 y_a7_proc_0 >= -1299
 c183: u_a2 - u_a7 - 1089 y_a7_proc_1 >= -1299
 c184: u_a8 - u_a2 - 1047 y_a2_proc_2 >= -2584
 c185: u_a8 - u_a2 - 1174 y_a2_proc_3 >= -1299
 c186: u_a8 - u_a2 - 627 y_a2_proc_0 >= -1299
 c187: u_a8 - u_a2 - 735 y_a2_proc_1 >= -2584
 c188: u_a2 - u_a8 - 913 y_a8_proc_2 >= -2557
 c189: u_a2 - u_a8 - 1238 y_a8_proc_3 >= -1272
 c190: u_a2 - u_a8 - 1060 y_a8_proc_0 >= -1272
 c191: u_a2 - u_a8 - 982 y_a8_proc_1 >= -2557
 c192: u_a9 - u_a2 - 1047 y_a2_proc_2 >= -2584
 c193: u_a9 - u_a2 - 1174 y_a2_proc_3 >= -2584
 c194: u_a9 - u_a2 - 627 y_a2_proc_0 >= -1299
 c195: u_a9 - u_a2 - 735 y_a2_proc_1 >= -1299
 c196: u_a2 - u_a9 - 1285 y_a9_proc_2 >= -2557
 c197: u_a2 - u_a9 - 798 y_a9_proc_3 >= -2557
 c198: u_a2 - u_a9 - 706 y_a9_proc_0 >= -1272
 c199: u_a2 - u_a9 - 609 y_a9_proc_1 >= -1272
 c200: u_a4 - u_a3 - 994 y_a3_proc_2 >= 0
 c201: u_a4 - u_a3 - 1027 y_a3_proc_3 >= -2570
 c202: u_a4 - u_a3 - 1141 y_a3_proc_1 >= -2570
 c203: u_a3 - u_a4 - 75 y_a4_proc_2 >= -1
 c204: u_a3 - u_a4 - 809 y_a4_proc_3 >= -2571
 c205: u_a3 - u_a4 - 890 y_a4_proc_1 >= -2571
 c206: u_a5 - u_a3 - 994 y_a3_proc_2 >= -1299
 c207: u_a5 - u_a3 - 1027 y_a3_proc_3 >= -2584
 c208: u_a5 - u_a3 - 1141 y_a3_proc_1 >= -2584
 c209: u_a3 - u_a5 - 1163 y_a5_proc_2 >= -1272
 c210: u_a3 - u_a5 - 651 y_a5_proc_3 >= -2557
 c211: u_a3 - u_a5 - 644 y_a5_proc_1 >= -2557
 c212: u_a6 - u_a3 - 994 y_a3_proc_2 >= -1
 c213: u_a6 - u_a3 - 1141 y_a3_proc_1 >= -2571
 c214: u_a3 - u_a6 - 525 y_a6_proc_2 >= 0
 c215: u_a3 - u_a6 - 960 y_a6_proc_1 >= -2570
 c216: u_a7 - u_a3 - 994 y_a3_proc_2 >= -1272
 c217: u_a7 - u_a3 - 1141 y_a3_proc_1 >= -1272
 c218: u_a3 - u_a7 - 1193 y_a7_proc_2 >= -1299
 c219: u_a3 - u_a7 - 1089 y_a7_proc_1 >= -1299
 c220: u_a8 - u_a3 - 994 y_a3_proc_2 >= -1272
 c221: u_a8 - u_a3 - 1027 y_a3_proc_3 >= -1272
 c222: u_a8 - u_a3 - 1141 y_a3_proc_1 >= -2557
 c223: u_a3 - u_a8 - 913 y_a8_proc_2 >= -1299
 c224: u_a3 - u_a8 - 1238 y_a8_proc_3 >= -1299
 c225: u_a3 - u_a8 - 982 y_a8_proc_1 >= -2584
 c226: u_a9 - u_a3 - 994 y_a3_proc_2 >= -1299
 c227: u_a9 - u_a3 - 1027 y_a3_proc_3 >= -2584
 c228: u_a9 - u_a3 - 1141 y_a3_proc_1 >= -1299
 c229: u_a3 - u_a9 - 1285 y_a9_proc_2 >= -1272
 c230: u_a3 - u_a9 - 798 y_a9_proc_3 >= -2557
 c231: u_a3 - u_a9 - 609 y_a9_proc_1 >= -1272
 c232: u_a5 - u_a4 - 75 y_a4_proc_2 >= -1299
 c233: u_a5 - u_a4 - 809 y_a4_proc_3 >= -2584
 c234: u_a5 - u_a4 - 457 y_a4_proc_0 >= -1299
 c235: u_a5 - u_a4 - 890 y_a4_proc_1 >= -2584
 c236: u_a4 - u_a5 - 1163 y_a5_proc_2 >= -1272
 c237: u_a4 - u_a5 - 651 y_a5_proc_3 >= -2557
 c238: u_a4 - u_a5 - 918 y_a5_proc_0 >= -1272
 c239: u_a4 - u_a5 - 644 y_a5_proc_1 >= -2557
 c240: u_a6 - u_a4 - 75 y_a4_proc_2 >= -1
 c241: u_a6 - u_a4 - 457 y_a4_proc_0 >= -2571
 c242: u_a6 - u_a4 - 890 y_a4_proc_1 >= -2571
 c243: u_a4 - u_a6 - 525 y_a6_proc_2 >= 0
 c244: u_a4 - u_a6 - 976 y_a6_proc_0 >= -2570
 c245: u_a4 - u_a6 - 960 y_a6_proc_1 >= -2570
 c246: u_a7 - u_a4 - 75 y_a4_proc_2 >= -1299
 c247: u_a7 - u_a4 - 457 y_a4_proc_0 >= -2584
 c248: u_a7 - u_a4 - 890 y_a4_proc_1 >= -1299
 c249: u_a4 - u_a7 - 1193 y_a7_proc_2 >= -1272
 c250: u_a4 - u_a7 - 729 y_a7_proc_0 >= -2557
 c251: u_a4 - u_a7 - 1089 y_a7_proc_1 >= -1272
 c252: u_a8 - u_a4 - 75 y_a4_proc_2 >= -1299
 c253: u_a8 - u_a4 - 809 y_a4_proc_3 >= -1299
 c254: u_a8 - u_a4 - 457 y_a4_proc_0 >= -2584
 c255: u_a8 - u_a4 - 890 y_a4_proc_1 >= -2584
 c256: u_a4 - u_a8 - 913 y_a8_proc_2 >= -1272
 c257: u_a4 - u_a8 - 1238 y_a8_proc_3 >= -1272
 c258: u_a4 - u_a8 - 1060 y_a8_proc_0 >= -2557
 c259: u_a4 - u_a8 - 982 y_a8_proc_1 >= -2557
 c260: u_a9 - u_a4 - 75 y_a4_proc_2 >= -1299
 c261: u_a9 - u_a4 - 809 y_a4_proc_3 >= -2584
 c262: u_a9 - u_a4 - 457 y_a4_proc_0 >= -2584
 c263: u_a9 - u_a4 - 890 y_a4_proc_1 >= -1299
 c264: u_a4 - u_a9 - 1285 y_a9_proc_2 >= -1272
 c265: u_a4 - u_a9 - 798 y_a9_proc_3 >= -2557
 c266: u_a4 - u_a9 - 706 y_a9_proc_0 >= -2557
 c267: u_a4 - u_a9 - 609 y_a9_proc_1 >= -1272
 c268: u_a6 - u_a5 - 1163 y_a5_proc_2 >= -1299
 c269: u_a6 - u_a5 - 918 y_a5_proc_0 >= -1299
 c270: u_a6 - u_a5 - 644 y_a5_proc_1 >= -2584
 c271: u_a5 - u_a6 - 525 y_a6_proc_2 >= -1272
 c272: u_a5 - u_a6 - 976 y_a6_proc_0 >= -1272
 c273: u_a5 - u_a6 - 960 y_a6_proc_1 >= -2557
 c274: u_a7 - u_a5 - 1163 y_a5_proc_2 >= -2584
 c275: u_a7 - u_a5 - 918 y_a5_proc_0 >= -1299
 c276: u_a7 - u_a5 - 644 y_a5_proc_1 >= -1299
 c277: u_a5 - u_a7 - 1193 y_a7_proc_2 >= -2557
 c278: u_a5 - u_a7 - 729 y_a7_proc_0 >= -1272
 c279: u_a5 - u_a7 - 1089 y_a7_proc_1 >= -1272
 c280: u_a8 - u_a5 - 1163 y_a5_proc_2 >= -2584
 c281: u_a8 - u_a5 - 651 y_a5_proc_3 >= -1299
 c282: u_a8 - u_a5 - 918 y_a5_proc_0 >= -1299
 c283: u_a8 - u_a5 - 644 y_a5_proc_1 >= -2584
 c284: u_a5 - u_a8 - 913 y_a8_proc_2 >= -2557
 c285: u_a5 - u_a8 - 1238 y_a8_proc_3 >= -1272
 c286: u_a5 - u_a8 - 1060 y_a8_proc_0 >= -1272
 c287: u_a5 - u_a8 - 982 y_a8_proc_1 >= -2557
 c288: u_a9 - u_a5 - 1163 y_a5_proc_2 >= -2557
 c289: u_a9 - u_a5 - 651 y_a5_proc_3 >= -2557
 c290: u_a9 - u_a5 - 918 y_a5_proc_0 >= -1272
 c291: u_a9 - u_a5 - 644 y_a5_proc_1 >= -1272
 c292: u_a5 - u_a9 - 1285 y_a9_proc_2 >= -2584
 c293: u_a5 - u_a9 - 798 y_a9_proc_3 >= -2584
 c294: u_a5 - u_a9 - 706 y_a9_proc_0 >= -1299
 c295: u_a5 - u_a9 - 609 y_a9_proc_1 >= -1299
 c296: u_a7 - u_a6 - 525 y_a6_proc_2 >= -1272
 c297: u_a7 - u_a6 - 976 y_a6_proc_0 >= -2557
 c298: u_a7 - u_a6 - 960 y_a6_proc_1 >= -1272
 c299: u_a6 - u_a7 - 1193 y_a7_proc_2 >= -1299
 c300: u_a6 - u_a7 - 729 y_a7_proc_0 >= -2584
 c301: u_a6 - u_a7 - 1089 y_a7_proc_1 >= -1299
 c302: u_a8 - u_a6 - 525 y_a6_proc_2 >= -1299
 c303: u_a8 - u_a6 - 976 y_a6_proc_0 >= -2584
 c304: u_a8 - u_a6 - 960 y_a6_proc_1 >= -2584
 c305: u_a6 - u_a8 - 913 y_a8_proc_2 >= -1272
 c306: u_a6 - u_a8 - 1060 y_a8_proc_0 >= -2557
 c307: u_a6 - u_a8 - 982 y_a8_proc_1 >= -2557
 c308: u_a9 - u_a6 - 525 y_a6_proc_2 >= -1299
 c309: u_a9 - u_a6 - 976 y_a6_proc_0 >= -2584
 c310: u_a9 - u_a6 - 960 y_a6_proc_1 >= -1299
 c311: u_a6 - u_a9 - 1285 y_a9_proc_2 >= -1272
 c312: u_a6 - u_a9 - 706 y_a9_proc_0 >= -2557
 c313: u_a6 - u_a9 - 609 y_a9_proc_1 >= -1272
 c314: u_a8 - u_a7 - 1193 y_a7_proc_2 >= -2584
 c315: u_a8 - u_a7 - 729 y_a7_proc_0 >= -2584
 c316: u_a8 - u_a7 - 1089 y_a7_proc_1 >= -1299
 c317: u_a7 - u_a8 - 913 y_a8_proc_2 >= -2557
 c318: u_a7 - u_a8 - 1060 y_a8_proc_0 >= -2557
 c319: u_a7 - u_a8 - 982 y_a8_proc_1 >= -1272
 c320: u_a9 - u_a7 - 1193 y_a7_proc_2 >= -2571
 c321: u_a9 - u_a7 - 729 y_a7_proc_0 >= -2571
 c322: u_a9 - u_a7 - 1089 y_a7_proc_1 >= -1
 c323: u_a7 - u_a9 - 1285 y_a9_proc_2 >= -2570
 c324: u_a7 - u_a9 - 706 y_a9_proc_0 >= -2570
 c325: u_a7 - u_a9 - 609 y_a9_proc_1 >= 0
 c326: u_a9 - u_a8 - 913 y_a8_proc_2 >= -2584
 c327: u_a9 - u_a8 - 1238 y_a8_proc_3 >= -1299
 c328: u_a9 - u_a8 - 1060 y_a8_proc_0 >= -2584
 c329: u_a9 - u_a8 - 982 y_a8_proc_1 >= -1299
 c330: u_a8 - u_a9 - 1285 y_a9_proc_2 >= -2557
 c331: u_a8 - u_a9 - 798 y_a9_proc_3 >= -1272
 c332: u_a8 - u_a9 - 706 y_a9_proc_0 >= -2557
 c333: u_a8 - u_a9 - 609 y_a9_proc_1 >= -1272

Bounds
End
