benchmark/results/graph__10-1000-0.10-04_4/graph__10-1000-0.10-04_4_QuintonOs_Benders_primal_sub.txt
solution for: Quinton Bounded Benders_primal_sub
objective: 0.000302755
status: OPTIMAL_SOLUTION(2)
u_a0=0.954
u_a1=0.533
u_a2=0.343
u_a3=0.676
u_a4=0.977
u_a5=0.676
u_a6=0.184
u_a7=0.282
u_a8=0.533
tau=0.000
y_a0_proc_0=0.000
y_a1_proc_0=0.000
y_a2_proc_0=0.000
y_a3_proc_2=0.000
y_a4_proc_2=0.000
y_a5_proc_0=0.000
y_a6_proc_2=0.000
y_a7_proc_1=0.000
y_a8_proc_3=0.000
y_a9_proc_1=0.000
